webassembly/ejemplos_dzn/folder14_json_7.dzn
TERM = { '.', 's(5)', 's(2)', 's(4)', 'in_1', 'local_0', 'local_1', 'in_2', 'in_3', 's(1)', 's(0)', 's(3)', 'in_0'};
null = '.';
s = 14;
n = 11;
ndeps = 6;
max_registers_sz = 4;
NR = 1;
registers = [|'local_0', 'in_1'|];
dependencies = [|'i32.load8_s_0', 'i32.store_5', |'i32.store_5', 'i32.load8_s_6', |'i32.store_5', 'i32.load8_s_8', |'i32.load_3', 'i32.store_5', |'i32.load8_s_6', 'i32.store8_10', |'i32.load8_s_8', 'i32.store8_10'|];
GET_ENUM = { GET1, GET2, GET3, GET4, GET5};
SET_ENUM = { SET1, SET2, SET3, SET4, SET5};
TEE_ENUM = { TEE1, TEE2, TEE3, TEE4, TEE5};
N = 9;
OP = { 'i32.sub_0', 'i32.load8_s_0', 'i32.load_3', 'i32.store_5', 'i32.load8_s_6', 'i32.load8_s_8', 'i32.const_0', 'i32.store8_10', 'local.get_0' };
in_ops = [2, 1, 1, 2, 1, 1, 0, 2, 0 ];
out_ops = [1, 1, 1, 0, 1, 1, 1, 0, 1 ];
in1 = ['in_2', 'in_0', 'local_1', 's(0)', 's(0)', 's(2)', '.', 's(5)', '.' ];
in2 = ['in_3', '.', '.', 's(1)', '.', '.', '.', 's(3)', '.' ];
in3 = ['.', '.', '.', '.', '.', '.', '.', '.', '.' ];
out1 = ['s(4)', 's(0)', 's(1)', '.', 's(2)', 's(3)', 's(5)', '.', 'local_1' ];
out2 = ['.', '.', '.', '.', '.', '.', '.', '.', '.' ];
out3 = ['.', '.', '.', '.', '.', '.', '.', '.', '.' ];
comm = [false, false, false, false, false, false, false, false, false ];
gas = [1, 1, 1, 1, 1, 1, 1, 1, 1 ];
sz = [1, 1, 1, 1, 1, 1, 1, 1, 1 ];
stor = [false, false, false, true, false, false, false, true, false ];
lb = [ 1, 1, 1, 1, 1, 1, 1, 1, 1 ];
ub = [ 14, 14, 14, 14, 14, 14, 14, 14, 14 ];
startstack = [ 'in_0', 'in_1', 'in_2', 'in_3', null, null, null, null, null, null, null ];
endstack = [ 'local_1', 's(4)', null, null, null, null, null, null, null, null, null ];
